# Cost: 284

# Tail Head Net
221 201 1
222 221 1
223 222 1
224 223 1
244 224 1
264 244 1
264 265 1
265 266 1
266 267 1
267 268 1
268 269 1
269 270 1
270 271 1
271 272 1
272 273 1
273 274 1
274 275 1
275 276 1
276 277 1
277 278 1
278 279 1
279 280 1
383 783 1
663 664 1
664 264 1
783 1183 1
1063 663 1
1083 1063 1
1103 1083 1
1123 1103 1
1143 1123 1
1163 1143 1
1183 1163 1
79 80 2
99 79 2
119 99 2
342 341 2
343 342 2
344 343 2
345 344 2
346 345 2
347 346 2
348 347 2
349 348 2
349 749 2
369 349 2
389 369 2
519 119 2
539 519 2
559 539 2
579 559 2
599 579 2
619 599 2
639 619 2
659 639 2
679 659 2
698 699 2
699 679 2
718 698 2
737 738 2
738 718 2
749 750 2
750 751 2
751 752 2
752 753 2
753 754 2
754 755 2
755 756 2
756 757 2
757 737 2
3 23 3
23 43 3
43 63 3
63 64 3
64 65 3
65 85 3
85 86 3
86 106 3
106 126 3
126 146 3
146 147 3
147 148 3
148 149 3
149 549 3
317 318 3
318 319 3
319 320 3
332 352 3
352 372 3
372 392 3
549 550 3
550 570 3
570 590 3
590 610 3
610 630 3
630 650 3
650 670 3
670 690 3
690 710 3
710 711 3
711 712 3
712 713 3
712 732 3
713 714 3
714 715 3
715 716 3
716 717 3
717 317 3
732 332 3
7 27 4
27 47 4
47 67 4
67 87 4
87 107 4
107 127 4
127 128 4
127 527 4
128 129 4
129 130 4
130 131 4
131 132 4
132 133 4
133 134 4
134 135 4
135 136 4
136 137 4
137 138 4
138 139 4
139 140 4
262 261 4
527 547 4
547 567 4
564 584 4
565 564 4
566 565 4
567 566 4
583 603 4
584 583 4
603 623 4
622 642 4
623 622 4
642 662 4
662 262 4
41 21 5
61 41 5
81 61 5
101 81 5
121 101 5
141 121 5
161 141 5
181 161 5
181 182 5
182 183 5
183 184 5
184 185 5
185 186 5
186 187 5
187 188 5
188 189 5
189 190 5
190 191 5
191 192 5
192 193 5
193 194 5
194 195 5
195 196 5
196 197 5
197 198 5
198 199 5
199 200 5
381 781 5
382 381 5
581 181 5
601 581 5
621 601 5
641 621 5
661 641 5
681 661 5
701 681 5
721 701 5
741 721 5
761 741 5
781 761 5
385 384 6
9 409 7
402 2 7
403 402 7
404 403 7
405 404 7
406 405 7
407 406 7
408 407 7
409 408 7
301 281 8
321 301 8
321 322 8
322 323 8
323 324 8
324 325 8
325 326 8
326 327 8
327 328 8
328 329 8
329 330 8
330 350 8
350 351 8
351 371 8
371 771 8
379 380 8
771 772 8
772 773 8
773 774 8
774 775 8
775 776 8
776 777 8
777 778 8
778 779 8
779 379 8
48 49 9
49 50 9
50 51 9
51 52 9
52 53 9
53 54 9
54 55 9
55 56 9
56 57 9
57 58 9
58 59 9
59 60 9
68 48 9
362 361 9
363 362 9
364 363 9
365 364 9
366 365 9
367 366 9
368 367 9
368 768 9
388 368 9
468 68 9
488 468 9
508 488 9
528 508 9
548 528 9
568 548 9
588 568 9
608 588 9
628 608 9
648 628 9
668 648 9
688 668 9
708 688 9
728 708 9
748 728 9
768 748 9
241 242 10
242 243 10
243 263 10
263 283 10
283 303 10
303 304 10
304 305 10
305 306 10
306 307 10
307 308 10
308 309 10
309 310 10
310 311 10
311 312 10
312 313 10
313 333 10
333 353 10
353 354 10
354 355 10
355 356 10
356 357 10
357 358 10
358 359 10
358 378 10
359 360 10
378 398 10
19 18 11
20 19 11
